qbf_easy_train/easy_715_UNSAT.qdimacs
p cnf 36 97
a 24 33 7 0
e 1 2 3 4 5 6 8 9 10 11 12 13 14 15 16 17 18 19 20 21 22 23 25 26 27 28 29 30 31 32 34 35 36 0
-3 1 0
-3 2 0
-1 -2 3 0
-5 1 0
-5 -4 0
-1 4 5 0
7 4 0
7 -6 0
-4 6 -7 0
4 -7 -8 0
-4 7 -8 0
4 7 8 0
-4 -7 8 0
9 -2 0
9 -8 0
2 8 -9 0
10 5 0
10 9 0
-5 -9 -10 0
-11 -7 0
-11 5 0
7 -5 11 0
-14 13 0
-14 -4 0
-13 4 14 0
15 -14 0
15 13 0
14 -13 -15 0
-16 12 0
-16 -15 0
-12 15 16 0
17 11 0
17 -16 0
-11 16 -17 0
-18 -1 0
-18 -12 0
1 12 18 0
-19 6 0
-19 12 0
-6 -12 19 0
18 19 -20 0
-18 -19 -20 0
18 -19 20 0
-18 19 20 0
-21 -17 0
-21 -20 0
17 20 21 0
22 10 0
22 21 0
-10 -21 -22 0
-23 3 0
-23 22 0
-3 -22 23 0
14 9 -24 0
-14 -9 -24 0
14 -9 24 0
-14 9 24 0
26 24 0
26 25 0
-24 -25 -26 0
27 6 0
27 2 0
-6 -2 -27 0
-28 -12 0
-28 9 0
12 -9 28 0
29 -8 0
29 -28 0
8 28 -29 0
30 -27 0
30 29 0
27 -29 -30 0
32 1 0
32 6 0
-1 -6 -32 0
33 -31 0
33 32 0
31 -32 -33 0
-34 -30 0
-34 33 0
30 -33 34 0
35 -26 0
35 34 0
26 -34 -35 0
36 23 0
36 -35 0
-23 35 -36 0
34 -32 -30 19 6 25 0
-24 3 -7 0
-34 7 -16 0
-16 -21 -33 0
24 -26 -10 0
17 35 -11 24 -13 -21 0
-10 1 3 -36 0
22 1 19 0
19 -24 -21 -8 -23 -5 0
36 0
