sat_easy_train/easy_715_UNSAT.dimacs
p cnf 133 444
4 2 0
4 3 0
-2 -3 -4 0
-5 1 0
-5 4 0
-1 -4 5 0
-6 -7 -8 0
6 7 -8 0
-6 7 8 0
6 -7 8 0
-5 8 -9 0
5 -8 -9 0
-5 -8 9 0
5 8 9 0
9 -10 -11 0
-9 10 -11 0
9 10 11 0
-9 -10 11 0
-12 11 0
-12 -2 0
-11 2 12 0
13 -12 0
13 -3 0
12 3 -13 0
-14 5 0
-14 -1 0
-5 1 14 0
15 13 0
15 -14 0
-13 14 -15 0
16 -2 -17 0
-16 2 -17 0
16 2 17 0
-16 -2 17 0
20 18 0
20 -19 0
-18 19 -20 0
-20 -1 -21 0
20 1 -21 0
-20 1 21 0
20 -1 21 0
21 -22 -23 0
-21 22 -23 0
21 22 23 0
-21 -22 23 0
24 -23 0
24 16 0
23 -16 -24 0
-25 -8 0
-25 -24 0
8 24 25 0
26 17 0
26 -25 0
-17 25 -26 0
-26 -1 -27 0
26 1 -27 0
-26 1 27 0
26 -1 27 0
-28 -22 0
-28 -8 0
22 8 28 0
-30 -2 0
-30 -29 0
2 29 30 0
28 -30 -31 0
-28 30 -31 0
28 30 31 0
-28 -30 31 0
6 31 -32 0
-6 -31 -32 0
6 -31 32 0
-6 31 32 0
33 4 0
33 32 0
-4 -32 -33 0
35 -17 0
35 -34 0
17 34 -35 0
-36 33 0
-36 35 0
-33 -35 36 0
-37 -27 0
-37 -36 0
27 36 37 0
38 20 0
38 -18 0
-20 18 -38 0
-3 38 -39 0
3 -38 -39 0
-3 -38 39 0
3 38 39 0
-40 39 0
-40 -5 0
-39 5 40 0
41 40 0
41 -34 0
-40 34 -41 0
42 -41 0
42 -5 0
41 5 -42 0
-43 1 0
-43 34 0
-1 -34 43 0
45 -43 0
45 44 0
43 -44 -45 0
-46 3 0
-46 -23 0
-3 23 46 0
47 -8 -48 0
-47 8 -48 0
47 8 48 0
-47 -8 48 0
19 48 -49 0
-19 -48 -49 0
19 -48 49 0
-19 48 49 0
-49 4 -50 0
49 -4 -50 0
-49 -4 50 0
49 4 50 0
-28 50 -51 0
28 -50 -51 0
-28 -50 51 0
28 50 51 0
52 46 0
52 -51 0
-46 51 -52 0
45 -52 -53 0
-45 52 -53 0
45 52 53 0
-45 -52 53 0
-54 -42 0
-54 53 0
42 -53 54 0
55 -37 0
55 54 0
37 -54 -55 0
-56 -50 0
-56 -4 0
50 4 56 0
47 -58 0
-47 -58 0
-59 -57 0
-59 58 0
57 -58 59 0
60 30 0
60 -59 0
-30 59 -60 0
61 -3 0
61 -7 0
3 7 -61 0
62 -60 0
62 -61 0
60 61 -62 0
63 56 0
63 62 0
-56 -62 -63 0
-64 -16 0
-64 -10 0
16 10 64 0
-65 4 0
-65 -64 0
-4 64 65 0
-66 50 0
-66 28 0
-50 -28 66 0
67 -29 0
67 -16 0
29 16 -67 0
-66 -67 -68 0
66 67 -68 0
-66 67 68 0
66 -67 68 0
69 65 0
69 -68 0
-65 68 -69 0
-70 -63 0
-70 69 0
63 -69 70 0
-71 16 0
-71 57 0
-16 -57 71 0
-72 50 0
-72 -71 0
-50 71 72 0
73 72 0
73 22 0
-72 -22 -73 0
-74 -41 0
-74 7 0
41 -7 74 0
21 -48 -75 0
-21 48 -75 0
21 48 75 0
-21 -48 75 0
-50 -26 -76 0
50 26 -76 0
-50 26 76 0
50 -26 76 0
77 47 0
77 22 0
-47 -22 -77 0
-17 77 -78 0
17 -77 -78 0
-17 -77 78 0
17 77 78 0
79 16 0
79 -78 0
-16 78 -79 0
-80 76 0
-80 79 0
-76 -79 80 0
81 -75 0
81 80 0
75 -80 -81 0
82 -57 0
82 61 0
57 -61 -82 0
-83 82 0
-83 4 0
-82 -4 83 0
84 11 0
84 -7 0
-11 7 -84 0
85 22 0
85 -61 0
-22 61 -85 0
-86 -26 0
-86 -85 0
26 85 86 0
87 84 0
87 86 0
-84 -86 -87 0
-88 -83 0
-88 87 0
83 -87 88 0
-10 -57 -89 0
10 57 -89 0
-10 57 89 0
10 -57 89 0
90 -89 0
90 38 0
89 -38 -90 0
91 90 0
91 -29 0
-90 29 -91 0
92 88 0
92 91 0
-88 -91 -92 0
-93 57 0
-93 18 0
-57 -18 93 0
93 -4 -94 0
-93 4 -94 0
93 4 94 0
-93 -4 94 0
-39 94 -95 0
39 -94 -95 0
-39 -94 95 0
39 94 95 0
-96 -92 0
-96 95 0
92 -95 96 0
97 -81 0
97 -96 0
81 96 -97 0
74 97 -98 0
-74 -97 -98 0
74 -97 98 0
-74 97 98 0
-19 93 -99 0
19 -93 -99 0
-19 -93 99 0
19 93 99 0
-100 -58 0
-100 66 0
58 -66 100 0
-99 100 -101 0
99 -100 -101 0
-99 -100 101 0
99 100 101 0
102 -98 0
102 101 0
98 -101 -102 0
-25 1 -103 0
25 -1 -103 0
-25 -1 103 0
25 1 103 0
104 -78 0
104 77 0
78 -77 -104 0
-19 104 -105 0
19 -104 -105 0
-19 -104 105 0
19 104 105 0
-106 103 0
-106 -105 0
-103 105 106 0
-38 -22 -107 0
38 22 -107 0
-38 22 107 0
38 -22 107 0
24 104 -108 0
-24 -104 -108 0
24 -104 108 0
-24 104 108 0
-109 108 0
-109 7 0
-108 -7 109 0
110 107 0
110 -109 0
-107 109 -110 0
112 -111 0
112 25 0
111 -25 -112 0
-113 110 0
-113 -112 0
-110 112 113 0
50 -43 -114 0
-50 43 -114 0
50 43 114 0
-50 -43 114 0
115 -113 0
115 -114 0
113 114 -115 0
-116 -106 0
-116 -115 0
106 115 116 0
117 102 0
117 116 0
-102 -116 -117 0
73 117 -118 0
-73 -117 -118 0
73 -117 118 0
-73 117 118 0
70 118 -119 0
-70 -118 -119 0
70 -118 119 0
-70 118 119 0
120 -55 0
120 -119 0
55 119 -120 0
121 -8 0
121 -2 0
8 2 -121 0
-122 -3 0
-122 -20 0
3 20 122 0
-123 -85 0
-123 122 0
85 -122 123 0
124 121 0
124 123 0
-121 -123 -124 0
-120 -124 -125 0
120 124 -125 0
-120 124 125 0
120 -124 125 0
15 125 -126 0
-15 -125 -126 0
15 -125 126 0
-15 125 126 0
-127 -2 0
-127 9 0
2 -9 127 0
-128 93 0
-128 127 0
-93 -127 128 0
129 41 0
129 18 0
-41 -18 -129 0
-130 -94 0
-130 -59 0
94 59 130 0
-131 129 0
-131 130 0
-129 -130 131 0
-128 -131 -132 0
128 131 -132 0
-128 131 132 0
128 -131 132 0
-133 126 0
-133 -132 0
-126 132 133 0
93 -81 0
-60 -12 -128 0
8 79 5 112 -19 0
-71 29 -113 -109 66 0
-61 92 -64 -116 0
-102 -17 -25 0
74 -36 0
-66 87 -48 53 0
-64 78 -86 -105 0
-23 -120 -69 62 -133 -58 0
67 103 60 -109 123 19 0
36 118 0
-23 -24 106 91 0
-38 -11 0
8 82 -83 48 123 0
-2 129 -47 75 -90 23 0
-108 -78 0
-26 -91 -24 0
-64 111 -69 0
33 -22 -21 0
130 133 -82 0
100 93 -124 117 1 -70 0
42 116 -37 0
52 -84 -9 -120 -11 -131 0
-53 -17 84 51 -25 0
13 -84 101 0
-9 -107 0
117 110 7 0
-57 85 107 84 0
-110 -76 -86 0
-125 127 98 132 -49 0
73 -119 12 8 0
-76 45 53 -100 92 0
83 -43 98 -126 0
112 28 0
25 -31 0
-124 122 -114 89 -98 0
-21 -13 -1 -102 0
9 -15 0
96 15 0
12 -133 104 -93 -40 -110 0
-52 17 0
111 120 -30 0
25 -106 -130 -19 0
100 126 81 107 8 0
45 83 0
24 -98 55 -100 34 -54 0
-15 9 62 74 0
39 -55 -114 -83 0
26 -42 0
66 -28 -97 0
89 -46 0
66 -72 75 -9 0
-115 -25 116 -111 15 0
-54 8 109 51 -58 0
113 115 -31 -48 -64 0
19 -109 104 -122 -88 0
50 -39 -48 26 72 81 0
133 0
